c nIsolatedPIs 0
c maxPI 32
p cnf 214 547
c gate 33 -11 -27 0
-11 -33 0
-27 -33 0
11 27 33 0
c gate 34 11 27 0
11 -34 0
27 -34 0
-11 -27 34 0
c gate 35 -33 -34 0
-33 -35 0
-34 -35 0
33 34 35 0
c gate 36 10 -26 0
10 -36 0
-26 -36 0
-10 26 36 0
c gate 37 8 -24 0
8 -37 0
-24 -37 0
-8 24 37 0
c gate 38 9 25 0
9 -38 0
25 -38 0
-9 -25 38 0
c gate 39 -9 -25 0
-9 -39 0
-25 -39 0
9 25 39 0
c gate 40 -38 -39 0
-38 -40 0
-39 -40 0
38 39 40 0
c gate 41 -37 -40 0
-37 -41 0
-40 -41 0
37 40 41 0
c gate 42 -10 26 0
-10 -42 0
26 -42 0
10 -26 42 0
c gate 43 -9 25 0
-9 -43 0
25 -43 0
9 -25 43 0
c gate 44 -42 -43 0
-42 -44 0
-43 -44 0
42 43 44 0
c gate 45 -41 44 0
-41 -45 0
44 -45 0
41 -44 45 0
c gate 46 -36 -45 0
-36 -46 0
-45 -46 0
36 45 46 0
c gate 47 -7 23 0
-7 -47 0
23 -47 0
7 -23 47 0
c gate 48 6 -22 0
6 -48 0
-22 -48 0
-6 22 48 0
c gate 49 7 -23 0
7 -49 0
-23 -49 0
-7 23 49 0
c gate 50 -48 -49 0
-48 -50 0
-49 -50 0
48 49 50 0
c gate 51 -2 18 0
-2 -51 0
18 -51 0
2 -18 51 0
c gate 52 -1 17 0
-1 -52 0
17 -52 0
1 -17 52 0
c gate 53 -51 -52 0
-51 -53 0
-52 -53 0
51 52 53 0
c gate 54 2 -18 0
2 -54 0
-18 -54 0
-2 18 54 0
c gate 55 3 -19 0
3 -55 0
-19 -55 0
-3 19 55 0
c gate 56 -54 -55 0
-54 -56 0
-55 -56 0
54 55 56 0
c gate 57 -53 56 0
-53 -57 0
56 -57 0
53 -56 57 0
c gate 58 -4 20 0
-4 -58 0
20 -58 0
4 -20 58 0
c gate 59 -3 19 0
-3 -59 0
19 -59 0
3 -19 59 0
c gate 60 -58 -59 0
-58 -60 0
-59 -60 0
58 59 60 0
c gate 61 -57 60 0
-57 -61 0
60 -61 0
57 -60 61 0
c gate 62 5 -21 0
5 -62 0
-21 -62 0
-5 21 62 0
c gate 63 4 -20 0
4 -63 0
-20 -63 0
-4 20 63 0
c gate 64 -62 -63 0
-62 -64 0
-63 -64 0
62 63 64 0
c gate 65 -61 64 0
-61 -65 0
64 -65 0
61 -64 65 0
c gate 66 -6 22 0
-6 -66 0
22 -66 0
6 -22 66 0
c gate 67 -48 -66 0
-48 -67 0
-66 -67 0
48 66 67 0
c gate 68 -5 21 0
-5 -68 0
21 -68 0
5 -21 68 0
c gate 69 67 -68 0
67 -69 0
-68 -69 0
-67 68 69 0
c gate 70 -65 69 0
-65 -70 0
69 -70 0
65 -69 70 0
c gate 71 50 -70 0
50 -71 0
-70 -71 0
-50 70 71 0
c gate 72 -47 -71 0
-47 -72 0
-71 -72 0
47 71 72 0
c gate 73 8 24 0
8 -73 0
24 -73 0
-8 -24 73 0
c gate 74 -8 -24 0
-8 -74 0
-24 -74 0
8 24 74 0
c gate 75 -73 -74 0
-73 -75 0
-74 -75 0
73 74 75 0
c gate 76 72 -75 0
72 -76 0
-75 -76 0
-72 75 76 0
c gate 77 44 76 0
44 -77 0
76 -77 0
-44 -76 77 0
c gate 78 46 -77 0
46 -78 0
-77 -78 0
-46 77 78 0
c gate 79 -35 78 0
-35 -79 0
78 -79 0
35 -78 79 0
c gate 80 35 -78 0
35 -80 0
-78 -80 0
-35 78 80 0
c gate 81 -79 -80 0
-79 -81 0
-80 -81 0
79 80 81 0
c gate 82 46 -81 0
46 -82 0
-81 -82 0
-46 81 82 0
c gate 83 -15 -31 0
-15 -83 0
-31 -83 0
15 31 83 0
c gate 84 15 31 0
15 -84 0
31 -84 0
-15 -31 84 0
c gate 85 -83 -84 0
-83 -85 0
-84 -85 0
83 84 85 0
c gate 86 -14 -30 0
-14 -86 0
-30 -86 0
14 30 86 0
c gate 87 14 30 0
14 -87 0
30 -87 0
-14 -30 87 0
c gate 88 -86 -87 0
-86 -88 0
-87 -88 0
86 87 88 0
c gate 89 -13 -29 0
-13 -89 0
-29 -89 0
13 29 89 0
c gate 90 12 28 0
12 -90 0
28 -90 0
-12 -28 90 0
c gate 91 -12 -28 0
-12 -91 0
-28 -91 0
12 28 91 0
c gate 92 -90 -91 0
-90 -92 0
-91 -92 0
90 91 92 0
c gate 93 -10 -26 0
-10 -93 0
-26 -93 0
10 26 93 0
c gate 94 -7 -23 0
-7 -94 0
-23 -94 0
7 23 94 0
c gate 95 -73 94 0
-73 -95 0
94 -95 0
73 -94 95 0
c gate 96 -39 -74 0
-39 -96 0
-74 -96 0
39 74 96 0
c gate 97 -95 96 0
-95 -97 0
96 -97 0
95 -96 97 0
c gate 98 2 18 0
2 -98 0
18 -98 0
-2 -18 98 0
c gate 99 1 17 0
1 -99 0
17 -99 0
-1 -17 99 0
c gate 100 -98 -99 0
-98 -100 0
-99 -100 0
98 99 100 0
c gate 101 -2 -18 0
-2 -101 0
-18 -101 0
2 18 101 0
c gate 102 -3 -19 0
-3 -102 0
-19 -102 0
3 19 102 0
c gate 103 -101 -102 0
-101 -103 0
-102 -103 0
101 102 103 0
c gate 104 -100 103 0
-100 -104 0
103 -104 0
100 -103 104 0
c gate 105 4 20 0
4 -105 0
20 -105 0
-4 -20 105 0
c gate 106 3 19 0
3 -106 0
19 -106 0
-3 -19 106 0
c gate 107 -105 -106 0
-105 -107 0
-106 -107 0
105 106 107 0
c gate 108 -104 107 0
-104 -108 0
107 -108 0
104 -107 108 0
c gate 109 -5 -21 0
-5 -109 0
-21 -109 0
5 21 109 0
c gate 110 -4 -20 0
-4 -110 0
-20 -110 0
4 20 110 0
c gate 111 -109 -110 0
-109 -111 0
-110 -111 0
109 110 111 0
c gate 112 -108 111 0
-108 -112 0
111 -112 0
108 -111 112 0
c gate 113 5 21 0
5 -113 0
21 -113 0
-5 -21 113 0
c gate 114 -67 -113 0
-67 -114 0
-113 -114 0
67 113 114 0
c gate 115 -112 114 0
-112 -115 0
114 -115 0
112 -114 115 0
c gate 116 -6 -22 0
-6 -116 0
-22 -116 0
6 22 116 0
c gate 117 -115 -116 0
-115 -117 0
-116 -117 0
115 116 117 0
c gate 118 -47 -49 0
-47 -118 0
-49 -118 0
47 49 118 0
c gate 119 75 -118 0
75 -119 0
-118 -119 0
-75 118 119 0
c gate 120 -117 119 0
-117 -120 0
119 -120 0
117 -119 120 0
c gate 121 97 -120 0
97 -121 0
-120 -121 0
-97 120 121 0
c gate 122 -38 -121 0
-38 -122 0
-121 -122 0
38 121 122 0
c gate 123 -93 -122 0
-93 -123 0
-122 -123 0
93 122 123 0
c gate 124 10 26 0
10 -124 0
26 -124 0
-10 -26 124 0
c gate 125 -34 -124 0
-34 -125 0
-124 -125 0
34 124 125 0
c gate 126 -123 125 0
-123 -126 0
125 -126 0
123 -125 126 0
c gate 127 -33 -126 0
-33 -127 0
-126 -127 0
33 126 127 0
c gate 128 92 127 0
92 -128 0
127 -128 0
-92 -127 128 0
c gate 129 13 29 0
13 -129 0
29 -129 0
-13 -29 129 0
c gate 130 -90 -129 0
-90 -130 0
-129 -130 0
90 129 130 0
c gate 131 -128 130 0
-128 -131 0
130 -131 0
128 -130 131 0
c gate 132 -89 -131 0
-89 -132 0
-131 -132 0
89 131 132 0
c gate 133 88 -132 0
88 -133 0
-132 -133 0
-88 132 133 0
c gate 134 -86 -133 0
-86 -134 0
-133 -134 0
86 133 134 0
c gate 135 85 -134 0
85 -135 0
-134 -135 0
-85 134 135 0
c gate 136 -83 -135 0
-83 -136 0
-135 -136 0
83 135 136 0
c gate 137 88 -130 0
88 -137 0
-130 -137 0
-88 130 137 0
c gate 138 -87 -137 0
-87 -138 0
-137 -138 0
87 137 138 0
c gate 139 85 -138 0
85 -139 0
-138 -139 0
-85 138 139 0
c gate 140 -84 -139 0
-84 -140 0
-139 -140 0
84 139 140 0
c gate 141 -16 -32 0
-16 -141 0
-32 -141 0
16 32 141 0
c gate 142 16 32 0
16 -142 0
32 -142 0
-16 -32 142 0
c gate 143 -141 -142 0
-141 -143 0
-142 -143 0
141 142 143 0
c gate 144 140 143 0
140 -144 0
143 -144 0
-140 -143 144 0
c gate 145 136 144 0
136 -145 0
144 -145 0
-136 -144 145 0
c gate 146 -70 -145 0
-70 -146 0
-145 -146 0
70 145 146 0
c gate 147 -88 130 0
-88 -147 0
130 -147 0
88 -130 147 0
c gate 148 -137 -147 0
-137 -148 0
-147 -148 0
137 147 148 0
c gate 149 -88 132 0
-88 -149 0
132 -149 0
88 -132 149 0
c gate 150 -133 -149 0
-133 -150 0
-149 -150 0
133 149 150 0
c gate 151 -148 -150 0
-148 -151 0
-150 -151 0
148 150 151 0
c gate 152 148 150 0
148 -152 0
150 -152 0
-148 -150 152 0
c gate 153 -151 -152 0
-151 -153 0
-152 -153 0
151 152 153 0
c gate 154 -38 -124 0
-38 -154 0
-124 -154 0
38 124 154 0
c gate 155 -97 154 0
-97 -155 0
154 -155 0
97 -154 155 0
c gate 156 -33 -93 0
-33 -156 0
-93 -156 0
33 93 156 0
c gate 157 -155 156 0
-155 -157 0
156 -157 0
155 -156 157 0
c gate 158 -34 -157 0
-34 -158 0
-157 -158 0
34 157 158 0
c gate 159 -92 127 0
-92 -159 0
127 -159 0
92 -127 159 0
c gate 160 158 -159 0
158 -160 0
-159 -160 0
-158 159 160 0
c gate 161 92 -127 0
92 -161 0
-127 -161 0
-92 127 161 0
c gate 162 -158 -161 0
-158 -162 0
-161 -162 0
158 161 162 0
c gate 163 -160 -162 0
-160 -163 0
-162 -163 0
160 162 163 0
c gate 164 153 163 0
153 -164 0
163 -164 0
-153 -163 164 0
c gate 165 -140 -143 0
-140 -165 0
-143 -165 0
140 143 165 0
c gate 166 -144 -165 0
-144 -166 0
-165 -166 0
144 165 166 0
c gate 167 136 -143 0
136 -167 0
-143 -167 0
-136 143 167 0
c gate 168 -136 143 0
-136 -168 0
143 -168 0
136 -143 168 0
c gate 169 -167 -168 0
-167 -169 0
-168 -169 0
167 168 169 0
c gate 170 -166 169 0
-166 -170 0
169 -170 0
166 -169 170 0
c gate 171 166 -169 0
166 -171 0
-169 -171 0
-166 169 171 0
c gate 172 -85 138 0
-85 -172 0
138 -172 0
85 -138 172 0
c gate 173 -139 -172 0
-139 -173 0
-172 -173 0
139 172 173 0
c gate 174 -85 134 0
-85 -174 0
134 -174 0
85 -134 174 0
c gate 175 -135 -174 0
-135 -175 0
-174 -175 0
135 174 175 0
c gate 176 -173 -175 0
-173 -176 0
-175 -176 0
173 175 176 0
c gate 177 173 175 0
173 -177 0
175 -177 0
-173 -175 177 0
c gate 178 -89 -129 0
-89 -178 0
-129 -178 0
89 129 178 0
c gate 179 128 -178 0
128 -179 0
-178 -179 0
-128 178 179 0
c gate 180 -151 -179 0
-151 -180 0
-179 -180 0
151 179 180 0
c gate 181 -177 -180 0
-177 -181 0
-180 -181 0
177 180 181 0
c gate 182 -176 -181 0
-176 -182 0
-181 -182 0
176 181 182 0
c gate 183 -171 182 0
-171 -183 0
182 -183 0
171 -182 183 0
c gate 184 -170 -183 0
-170 -184 0
-183 -184 0
170 183 184 0
c gate 185 -164 -184 0
-164 -185 0
-184 -185 0
164 184 185 0
c gate 186 -120 -128 0
-120 -186 0
-128 -186 0
120 128 186 0
c gate 187 153 186 0
153 -187 0
186 -187 0
-153 -186 187 0
c gate 188 -185 -187 0
-185 -188 0
-187 -188 0
185 187 188 0
c gate 189 146 188 0
146 -189 0
188 -189 0
-146 -188 189 0
c gate 190 70 -118 0
70 -190 0
-118 -190 0
-70 118 190 0
c gate 191 -70 143 0
-70 -191 0
143 -191 0
70 -143 191 0
c gate 192 171 191 0
171 -192 0
191 -192 0
-171 -191 192 0
c gate 193 -190 -192 0
-190 -193 0
-192 -193 0
190 192 193 0
c gate 194 -189 193 0
-189 -194 0
193 -194 0
189 -193 194 0
c gate 195 -76 -194 0
-76 -195 0
-194 -195 0
76 194 195 0
c gate 196 50 75 0
50 -196 0
75 -196 0
-50 -75 196 0
c gate 197 72 196 0
72 -197 0
196 -197 0
-72 -196 197 0
c gate 198 -76 -197 0
-76 -198 0
-197 -198 0
76 197 198 0
c gate 199 -93 -124 0
-93 -199 0
-124 -199 0
93 124 199 0
c gate 200 -40 -199 0
-40 -200 0
-199 -200 0
40 199 200 0
c gate 201 -197 200 0
-197 -201 0
200 -201 0
197 -200 201 0
c gate 202 -198 -201 0
-198 -202 0
-201 -202 0
198 201 202 0
c gate 203 -195 -202 0
-195 -203 0
-202 -203 0
195 202 203 0
c gate 204 -82 203 0
-82 -204 0
203 -204 0
82 -203 204 0
c gate 205 -79 -204 0
-79 -205 0
-204 -205 0
79 204 205 0
c gate 206 -85 -88 0
-85 -206 0
-88 -206 0
85 88 206 0
c gate 207 -92 -143 0
-92 -207 0
-143 -207 0
92 143 207 0
c gate 208 -178 207 0
-178 -208 0
207 -208 0
178 -207 208 0
c gate 209 206 208 0
206 -209 0
208 -209 0
-206 -208 209 0
c gate 210 79 209 0
79 -210 0
209 -210 0
-79 -209 210 0
c gate 211 -205 -210 0
-205 -211 0
-210 -211 0
205 210 211 0
c gate 212 116 118 0
116 -212 0
118 -212 0
-116 -118 212 0
c gate 213 -117 -212 0
-117 -213 0
-212 -213 0
117 212 213 0
c gate 214 -211 213 0
-211 -214 0
213 -214 0
211 -213 214 0
c PO
214 0
